treewidth/data/CoxeterGraph.gr
p tw 28 42
1 2
1 17
1 18
2 13
2 5
13 22
13 19
22 23
22 15
23 24
23 10
24 25
24 4
25 26
25 21
26 27
26 18
27 28
27 19
28 3
28 14
3 4
3 20
4 5
5 6
6 7
6 12
7 8
7 21
8 9
8 19
9 10
9 20
10 11
11 12
11 18
12 14
14 15
15 16
16 17
16 21
17 20
