treewidth/data/CoxeterGraph.td
c width = 7, time = 0.172149
s td 12 8 28
b 1 1 2 7 11 15 20 24 27
b 2 2 7 11 14 15 20 24 27
b 3 2 4 7 11 14 20 24 27
b 4 3 4 14 20 27 28
b 5 2 4 5 6 7 11 12 14
b 6 2 7 11 15 20 22 24 27
b 7 2 7 9 11 20 22 24 27
b 8 2 7 8 9 13 19 22 27
b 9 9 10 11 22 23 24
b 10 1 7 11 15 20 24 25 27
b 11 1 7 15 16 17 20 21 25
b 12 1 11 18 25 26 27
3 4
3 5
2 3
1 2
7 8
7 9
6 7
1 6
10 11
10 12
1 10
